Maximize
  13 x0 - 27 x1 - 12 x2 - 17 x3 + 25 x4 - 33 x5 + 16 x6 - 11 x7 + 31 x8
   + 36 x9 - 44 x10 - 17 x11 - 11 x12 + 38 x13 - 17 x14 - 3 x15 + 3 x16
   + 3 x17 + 22 x18 - 45 x19 - x20 + 9 x21 - 29 x22 + 40 x23 + 14 x24
   + 25 x25 + 43 x26 - 36 x27 - 21 x28 + 11 x29 - 29 x30 - 43 x31 - 38 x32
   + 21 x33 - 32 x34 + 3 x35 + x36 - 34 x37 + 48 x38 + 49 x39 + [ 16 x0 ^2
   - 20 x0 * x1 - 52 x0 * x2 - 64 x0 * x3 + 4 x0 * x4 + 60 x0 * x5
   + 70 x0 * x6 - 30 x0 * x7 - 52 x0 * x8 - 94 x0 * x9 - 46 x0 * x10
   - 12 x0 * x11 - 26 x0 * x12 - 34 x0 * x13 + 52 x0 * x14 + 32 x0 * x15
   + 56 x0 * x16 - 74 x0 * x17 - 4 x0 * x18 - 66 x0 * x19 + 56 x0 * x20
   - 18 x0 * x21 + 50 x0 * x22 - 70 x0 * x23 - 26 x0 * x24 - 52 x0 * x25
   + 6 x0 * x26 + 58 x0 * x27 + 14 x0 * x28 - 14 x0 * x29 + 62 x0 * x30
   + 48 x0 * x31 - 94 x0 * x32 + 30 x0 * x33 + 84 x0 * x34 + 26 x0 * x35
   - 64 x0 * x36 - 48 x0 * x37 + 78 x0 * x38 - 78 x0 * x39 - 14 x1 ^2
   + 70 x1 * x2 - 36 x1 * x4 - 62 x1 * x5 + 72 x1 * x6 + 22 x1 * x7
   - 80 x1 * x8 - 16 x1 * x9 - 2 x1 * x10 + 28 x1 * x11 + 14 x1 * x12
   + 10 x1 * x13 - 50 x1 * x14 - 76 x1 * x15 - 50 x1 * x16 + 88 x1 * x17
   - 26 x1 * x18 + 22 x1 * x19 + 38 x1 * x20 - 78 x1 * x21 + 28 x1 * x22
   - 70 x1 * x23 - 12 x1 * x24 - 76 x1 * x25 - 14 x1 * x26 - 80 x1 * x27
   - 18 x1 * x28 - 92 x1 * x29 - 26 x1 * x30 + 54 x1 * x31 - 80 x1 * x32
   - 58 x1 * x33 - 28 x1 * x34 - 24 x1 * x35 + 86 x1 * x36 - 66 x1 * x37
   + 84 x1 * x38 + 28 x1 * x39 - 26 x2 ^2 - 56 x2 * x3 + 30 x2 * x4
   - 62 x2 * x5 + 98 x2 * x6 + 66 x2 * x8 + 48 x2 * x9 - 84 x2 * x10
   - 70 x2 * x11 + 68 x2 * x12 + 68 x2 * x13 + 78 x2 * x14 + 6 x2 * x15
   + 26 x2 * x16 + 70 x2 * x17 - 10 x2 * x18 + 6 x2 * x19 + 44 x2 * x20
   - 88 x2 * x21 - 10 x2 * x22 - 16 x2 * x23 - 30 x2 * x24 - 60 x2 * x25
   - 74 x2 * x26 - 62 x2 * x27 - 58 x2 * x28 - 70 x2 * x29 - 98 x2 * x30
   - 52 x2 * x31 + 60 x2 * x32 + 38 x2 * x33 + 98 x2 * x34 + 76 x2 * x35
   - 52 x2 * x36 - 94 x2 * x37 - 92 x2 * x38 - 42 x2 * x39 - 39 x3 ^2
   + 52 x3 * x4 + 4 x3 * x5 + 6 x3 * x6 - 64 x3 * x7 - 36 x3 * x8
   + 24 x3 * x9 - 12 x3 * x10 + 30 x3 * x11 - 86 x3 * x12 + 18 x3 * x13
   - 88 x3 * x14 + 40 x3 * x15 - 26 x3 * x16 - 40 x3 * x17 - 86 x3 * x18
   + 80 x3 * x19 + 18 x3 * x20 + 94 x3 * x21 - 94 x3 * x22 + 24 x3 * x23
   + 4 x3 * x24 - 96 x3 * x25 - 92 x3 * x26 + 92 x3 * x27 - 36 x3 * x28
   + 22 x3 * x29 - 8 x3 * x30 - 94 x3 * x31 + 76 x3 * x32 + 82 x3 * x33
   - 54 x3 * x34 - 34 x3 * x35 - 26 x3 * x36 - 30 x3 * x37 - 92 x3 * x38
   - 22 x3 * x39 + 29 x4 ^2 - 76 x4 * x5 - 32 x4 * x6 + 4 x4 * x7
   + 52 x4 * x8 - 64 x4 * x9 - 10 x4 * x10 + 10 x4 * x11 + 60 x4 * x12
   + 44 x4 * x13 + 10 x4 * x14 + 92 x4 * x15 + 8 x4 * x16 - 18 x4 * x17
   - 18 x4 * x18 - 94 x4 * x19 - 34 x4 * x20 - 94 x4 * x21 + 22 x4 * x22
   - 34 x4 * x23 - 82 x4 * x24 - 36 x4 * x25 + 40 x4 * x26 + 90 x4 * x27
   + 18 x4 * x28 + 38 x4 * x29 - 40 x4 * x30 + 54 x4 * x31 + 80 x4 * x32
   - 2 x4 * x33 + 48 x4 * x34 + 96 x4 * x35 + 22 x4 * x36 - 24 x4 * x37
   + 66 x4 * x38 - 68 x4 * x39 + 27 x5 ^2 - 22 x5 * x6 + 68 x5 * x7
   - 38 x5 * x8 - 98 x5 * x9 - 68 x5 * x10 - 32 x5 * x11 + 20 x5 * x12
   + 36 x5 * x13 + 46 x5 * x14 - 46 x5 * x15 - 32 x5 * x16 - 82 x5 * x17
   + 56 x5 * x18 + 36 x5 * x19 - 18 x5 * x20 + 10 x5 * x21 + 18 x5 * x22
   + 88 x5 * x23 + 78 x5 * x24 + 62 x5 * x25 + 94 x5 * x26 + 4 x5 * x27
   - 58 x5 * x28 - 4 x5 * x29 - 20 x5 * x30 - 90 x5 * x31 - 70 x5 * x32
   - 16 x5 * x33 - 6 x5 * x34 - 36 x5 * x35 + 58 x5 * x36 - 16 x5 * x37
   - 24 x5 * x38 - 98 x5 * x39 - 24 x6 ^2 + 26 x6 * x7 - 14 x6 * x8
   + 10 x6 * x9 + 20 x6 * x10 - 8 x6 * x11 - 64 x6 * x12 - 36 x6 * x13
   + 42 x6 * x14 + 10 x6 * x15 + 96 x6 * x16 + 22 x6 * x17 - 4 x6 * x18
   + 98 x6 * x19 + 18 x6 * x20 + 58 x6 * x22 - 70 x6 * x23 + 52 x6 * x24
   - 44 x6 * x25 + 26 x6 * x27 + 22 x6 * x28 + 32 x6 * x29 - 98 x6 * x30
   - 42 x6 * x31 - 80 x6 * x32 + 32 x6 * x33 - 30 x6 * x34 - 24 x6 * x36
   + 20 x6 * x37 - 88 x6 * x38 + 78 x6 * x39 - 20 x7 ^2 + 76 x7 * x8
   - 76 x7 * x9 - 48 x7 * x10 + 10 x7 * x11 + 44 x7 * x12 - 94 x7 * x13
   + 94 x7 * x14 - 10 x7 * x15 + 34 x7 * x16 + 96 x7 * x17 + 4 x7 * x18
   + 52 x7 * x19 + 40 x7 * x20 - 68 x7 * x21 - 74 x7 * x22 + 48 x7 * x23
   + 46 x7 * x24 + 40 x7 * x25 + 94 x7 * x26 - 6 x7 * x27 + 36 x7 * x28
   + 32 x7 * x29 - 14 x7 * x30 - 52 x7 * x31 + 30 x7 * x32 - 28 x7 * x33
   - 56 x7 * x34 - 86 x7 * x35 - 54 x7 * x36 + 16 x7 * x37 + 22 x7 * x38
   + 80 x7 * x39 - 23 x8 ^2 - 50 x8 * x9 - 84 x8 * x10 + 74 x8 * x11
   + 24 x8 * x12 - 32 x8 * x13 - 16 x8 * x14 - 20 x8 * x15 - 40 x8 * x16
   + 90 x8 * x17 + 96 x8 * x18 - 8 x8 * x19 - 48 x8 * x20 + 84 x8 * x21
   + 58 x8 * x22 + 28 x8 * x23 + 26 x8 * x24 - 4 x8 * x25 + 22 x8 * x26
   - 20 x8 * x27 - 34 x8 * x28 - 34 x8 * x29 - 86 x8 * x30 + 54 x8 * x31
   + 70 x8 * x32 - 8 x8 * x33 + 6 x8 * x34 + 62 x8 * x35 + 78 x8 * x36
   + 92 x8 * x37 - 76 x8 * x38 + 96 x8 * x39 - x9 ^2 - 38 x9 * x10
   + 60 x9 * x11 + 62 x9 * x12 + 12 x9 * x13 + 60 x9 * x14 - 70 x9 * x15
   - 96 x9 * x16 - 16 x9 * x17 + 24 x9 * x18 + 82 x9 * x19 - 36 x9 * x20
   - 46 x9 * x21 + 16 x9 * x22 - 4 x9 * x23 + 60 x9 * x24 + 26 x9 * x25
   - 18 x9 * x26 + 12 x9 * x27 - 34 x9 * x28 + 18 x9 * x29 - 32 x9 * x30
   + 62 x9 * x31 - 86 x9 * x33 - 84 x9 * x34 - 82 x9 * x35 + 62 x9 * x36
   - 66 x9 * x37 - 8 x9 * x38 + 70 x9 * x39 - 31 x10 ^2 + 48 x10 * x11
   + 64 x10 * x12 - 92 x10 * x13 + 66 x10 * x14 - 84 x10 * x15
   + 94 x10 * x16 - 64 x10 * x17 + 64 x10 * x18 - 24 x10 * x19
   + 70 x10 * x20 - 52 x10 * x21 + 20 x10 * x23 - 72 x10 * x24
   + 50 x10 * x25 - 98 x10 * x26 - 88 x10 * x27 + 14 x10 * x28
   + 32 x10 * x29 + 40 x10 * x31 + 52 x10 * x32 - 18 x10 * x33
   + 54 x10 * x34 + 70 x10 * x35 - 26 x10 * x36 + 92 x10 * x37
   - 40 x10 * x38 - 48 x10 * x39 + 16 x11 ^2 + 40 x11 * x12 - 6 x11 * x13
   + 52 x11 * x14 + 68 x11 * x15 - 44 x11 * x16 + 72 x11 * x17
   - 70 x11 * x18 + 10 x11 * x19 - 12 x11 * x20 + 62 x11 * x21
   - 20 x11 * x22 - 2 x11 * x23 - 4 x11 * x24 + 50 x11 * x25 - 46 x11 * x26
   - 70 x11 * x27 + 2 x11 * x28 - 78 x11 * x29 + 6 x11 * x30 - 24 x11 * x31
   - 4 x11 * x32 - 58 x11 * x33 - 42 x11 * x34 + 88 x11 * x35
   - 72 x11 * x36 + 64 x11 * x37 - 78 x11 * x38 + 70 x11 * x39 + 45 x12 ^2
   + 8 x12 * x13 + 52 x12 * x14 + 20 x12 * x15 - 46 x12 * x17
   + 76 x12 * x18 + 74 x12 * x19 - 88 x12 * x20 + 40 x12 * x21
   + 62 x12 * x22 - 24 x12 * x23 + 76 x12 * x24 - 20 x12 * x25
   + 26 x12 * x26 + 96 x12 * x27 - 46 x12 * x28 + 26 x12 * x29
   + 4 x12 * x30 - 20 x12 * x31 + 50 x12 * x32 + 88 x12 * x33
   - 40 x12 * x34 + 50 x12 * x35 - 86 x12 * x36 - 60 x12 * x37
   - 66 x12 * x38 + 78 x12 * x39 - 45 x13 ^2 + 76 x13 * x14 - 60 x13 * x15
   - 66 x13 * x16 + 74 x13 * x17 - 30 x13 * x18 - 66 x13 * x19
   - 12 x13 * x20 + 12 x13 * x21 + 50 x13 * x22 + 76 x13 * x23
   - 56 x13 * x24 + 40 x13 * x25 + 56 x13 * x26 + 76 x13 * x27
   + 20 x13 * x28 + 88 x13 * x29 - 16 x13 * x30 + 14 x13 * x31
   - 26 x13 * x32 + 96 x13 * x33 - 40 x13 * x34 + 56 x13 * x35
   + 14 x13 * x36 - 90 x13 * x37 + 80 x13 * x38 - 72 x13 * x39 + 15 x14 ^2
   - 54 x14 * x15 + 90 x14 * x16 - 6 x14 * x17 - 56 x14 * x18
   - 80 x14 * x19 - 68 x14 * x20 + 88 x14 * x21 - 26 x14 * x22
   + 52 x14 * x23 - 16 x14 * x24 - 68 x14 * x25 + 72 x14 * x26
   - 80 x14 * x27 + 28 x14 * x28 - 66 x14 * x29 + 88 x14 * x30
   + 28 x14 * x31 - 48 x14 * x32 - 62 x14 * x33 + 50 x14 * x34
   - 30 x14 * x35 - 46 x14 * x36 + 28 x14 * x37 - 44 x14 * x38
   + 52 x14 * x39 - 21 x15 ^2 - 98 x15 * x16 + 34 x15 * x17 + 98 x15 * x18
   + 4 x15 * x19 + 50 x15 * x20 + 68 x15 * x21 + 50 x15 * x22
   - 34 x15 * x23 + 24 x15 * x24 + 90 x15 * x25 + 28 x15 * x26
   - 90 x15 * x27 - 98 x15 * x28 - 26 x15 * x29 - 42 x15 * x30
   + 98 x15 * x31 + 98 x15 * x32 + 74 x15 * x33 + 80 x15 * x34
   - 24 x15 * x35 + 56 x15 * x36 - 38 x15 * x37 + 90 x15 * x38
   + 46 x15 * x39 + 45 x16 ^2 - 6 x16 * x17 + 98 x16 * x18 - 32 x16 * x19
   + 98 x16 * x20 - 30 x16 * x21 - 86 x16 * x22 + 82 x16 * x23
   - 14 x16 * x24 + 68 x16 * x25 + 56 x16 * x26 + 80 x16 * x27
   + 78 x16 * x28 + 38 x16 * x29 - 40 x16 * x30 + 80 x16 * x31
   + 74 x16 * x32 - 22 x16 * x33 + 96 x16 * x34 + 60 x16 * x35
   + 20 x16 * x36 - 22 x16 * x37 - 70 x16 * x38 + 30 x16 * x39 + 14 x17 ^2
   - 58 x17 * x18 + 66 x17 * x19 - 92 x17 * x20 - 12 x17 * x21
   + 52 x17 * x22 + 36 x17 * x23 - 52 x17 * x24 - 26 x17 * x25
   - 38 x17 * x26 + 14 x17 * x27 - 72 x17 * x28 + 84 x17 * x29
   - 34 x17 * x30 + 80 x17 * x31 - 12 x17 * x32 + 92 x17 * x33
   - 6 x17 * x34 + 94 x17 * x35 + 2 x17 * x36 - 26 x17 * x37 - 48 x17 * x38
   - 20 x17 * x39 - 43 x18 ^2 + 34 x18 * x19 - 60 x18 * x20 + 60 x18 * x21
   - 30 x18 * x22 + 78 x18 * x23 - 60 x18 * x24 + 44 x18 * x25
   + 82 x18 * x26 - 84 x18 * x27 + 98 x18 * x28 + 12 x18 * x29
   - 6 x18 * x30 + 98 x18 * x31 + 2 x18 * x32 - 92 x18 * x33 + 56 x18 * x34
   - 68 x18 * x35 - 78 x18 * x36 - 36 x18 * x37 + 56 x18 * x38
   + 38 x18 * x39 + 38 x19 ^2 - 32 x19 * x20 + 56 x19 * x21 + 38 x19 * x22
   - 12 x19 * x23 + 20 x19 * x24 + 92 x19 * x25 - 14 x19 * x26
   - 14 x19 * x27 + 78 x19 * x28 + 78 x19 * x29 + 78 x19 * x30
   - 44 x19 * x31 + 30 x19 * x32 - 92 x19 * x33 + 54 x19 * x34
   + 64 x19 * x35 - 10 x19 * x36 + 12 x19 * x37 - 92 x19 * x38
   + 38 x19 * x39 - 12 x20 ^2 + 58 x20 * x21 - 8 x20 * x22 + 40 x20 * x23
   - 66 x20 * x24 + 36 x20 * x25 + 62 x20 * x26 + 84 x20 * x27
   - 12 x20 * x28 - 22 x20 * x29 + 42 x20 * x30 - 78 x20 * x31
   - 42 x20 * x32 + 22 x20 * x34 - 76 x20 * x35 - 14 x20 * x36
   + 86 x20 * x37 + 70 x20 * x38 - 16 x20 * x39 - 16 x21 ^2 + 20 x21 * x22
   + 8 x21 * x23 - 90 x21 * x24 - 72 x21 * x25 - 32 x21 * x26
   + 24 x21 * x27 - 60 x21 * x28 - 30 x21 * x29 - 22 x21 * x30
   - 96 x21 * x31 - 88 x21 * x32 + 92 x21 * x33 - 30 x21 * x34
   + 24 x21 * x35 + 46 x21 * x36 - 60 x21 * x37 - 56 x21 * x38
   - 30 x21 * x39 + 41 x22 ^2 - 40 x22 * x23 + 64 x22 * x24 + 36 x22 * x25
   - 28 x22 * x27 + 72 x22 * x28 - 4 x22 * x29 + 64 x22 * x30
   + 70 x22 * x31 - 32 x22 * x32 + 36 x22 * x33 + 98 x22 * x34
   + 16 x22 * x35 + 52 x22 * x37 + 74 x22 * x38 + 22 x22 * x39 + 41 x23 ^2
   - 64 x23 * x24 + 30 x23 * x25 + 76 x23 * x26 - 10 x23 * x27
   + 6 x23 * x28 + 68 x23 * x29 + 48 x23 * x30 - 54 x23 * x31
   + 22 x23 * x32 + 74 x23 * x34 - 30 x23 * x35 + 10 x23 * x36
   + 78 x23 * x37 - 68 x23 * x38 - 24 x23 * x39 + 44 x24 ^2 - 92 x24 * x25
   + 80 x24 * x26 + 66 x24 * x27 - 40 x24 * x28 + 6 x24 * x29
   + 56 x24 * x30 + 48 x24 * x31 + 20 x24 * x32 + 84 x24 * x33
   + 8 x24 * x34 - 62 x24 * x35 + 98 x24 * x36 + 84 x24 * x37
   + 58 x24 * x38 - 64 x24 * x39 + 78 x25 * x26 - 60 x25 * x27
   + 54 x25 * x28 + 64 x25 * x29 + 56 x25 * x30 + 68 x25 * x31
   - 76 x25 * x32 - 42 x25 * x33 + 24 x25 * x34 + 68 x25 * x35
   - 24 x25 * x36 + 4 x25 * x37 - 2 x25 * x38 + 78 x25 * x39 - 49 x26 ^2
   - 24 x26 * x27 - 26 x26 * x28 - 70 x26 * x29 + 12 x26 * x30
   - 18 x26 * x31 + 8 x26 * x32 + 24 x26 * x33 + 48 x26 * x34
   + 94 x26 * x35 + 26 x26 * x36 - 68 x26 * x37 - 66 x26 * x38
   + 58 x26 * x39 + 2 x27 ^2 + 78 x27 * x28 - 48 x27 * x29 - 24 x27 * x30
   + 94 x27 * x31 + 4 x27 * x32 - 46 x27 * x33 + 96 x27 * x34
   - 40 x27 * x35 + 34 x27 * x36 + 32 x27 * x37 + 82 x27 * x38
   - 74 x27 * x39 + 9 x28 ^2 - 56 x28 * x29 - 76 x28 * x30 - 90 x28 * x31
   - 36 x28 * x32 + 36 x28 * x33 - 72 x28 * x34 - 94 x28 * x35
   - 10 x28 * x36 + 72 x28 * x37 - 16 x28 * x38 - 2 x28 * x39 - 31 x29 ^2
   - 16 x29 * x30 - 52 x29 * x31 - 10 x29 * x32 + 86 x29 * x33
   + 18 x29 * x34 + 50 x29 * x35 + 50 x29 * x36 + 78 x29 * x37
   - 58 x29 * x38 - 56 x29 * x39 + 20 x30 ^2 - 46 x30 * x31 + 44 x30 * x32
   + 26 x30 * x33 + 42 x30 * x34 - 48 x30 * x35 - 76 x30 * x36
   - 34 x30 * x37 - 72 x30 * x38 + 14 x30 * x39 + 17 x31 ^2 + 78 x31 * x32
   - 80 x31 * x33 - 14 x31 * x34 + 38 x31 * x35 + 10 x31 * x36
   + 60 x31 * x37 - 50 x31 * x38 + 16 x31 * x39 - 34 x32 ^2 - 94 x32 * x33
   + 8 x32 * x34 - 84 x32 * x35 + 82 x32 * x36 - 64 x32 * x37
   + 12 x32 * x38 + 20 x32 * x39 - 34 x33 ^2 - 50 x33 * x34 - 78 x33 * x35
   + 10 x33 * x36 + 46 x33 * x37 - 54 x33 * x38 - 60 x33 * x39 - 21 x34 ^2
   + 12 x34 * x35 - 82 x34 * x36 + 46 x34 * x37 - 82 x34 * x38
   - 82 x34 * x39 - 39 x35 ^2 - 20 x35 * x36 + 74 x35 * x37 - 30 x35 * x38
   + 12 x35 * x39 - 49 x36 ^2 - 52 x36 * x37 + 46 x36 * x38 - 60 x36 * x39
   + 44 x37 * x38 - 6 x37 * x39 + 14 x38 ^2 - 68 x38 * x39 - 49 x39 ^2
   ] / 2 
Subject To
Bounds
 x0 <= 1
 x1 <= 1
 x2 <= 1
 x3 <= 1
 x4 <= 1
 x5 <= 1
 x6 <= 1
 x7 <= 1
 x8 <= 1
 x9 <= 1
 x10 <= 1
 x11 <= 1
 x12 <= 1
 x13 <= 1
 x14 <= 1
 x15 <= 1
 x16 <= 1
 x17 <= 1
 x18 <= 1
 x19 <= 1
 x20 <= 1
 x21 <= 1
 x22 <= 1
 x23 <= 1
 x24 <= 1
 x25 <= 1
 x26 <= 1
 x27 <= 1
 x28 <= 1
 x29 <= 1
 x30 <= 1
 x31 <= 1
 x32 <= 1
 x33 <= 1
 x34 <= 1
 x35 <= 1
 x36 <= 1
 x37 <= 1
 x38 <= 1
 x39 <= 1
End
